NAME           C:\Bruker\Hvattum\knapsack\Problems\class4\100-10-29.mps
ROWS
 N  OBJ
 L  CONSTR1
 L  CONSTR2
 L  CONSTR3
 L  CONSTR4
 L  CONSTR5
 L  CONSTR6
 L  CONSTR7
 L  CONSTR8
 L  CONSTR9
 L  CONSTR10
COLUMNS
    INT0001   'MARKER'  'INTORG'
    X1        OBJ       824
    X1        CONSTR1   344
    X1        CONSTR2   187
    X1        CONSTR3   348
    X1        CONSTR4   193
    X1        CONSTR5   156
    X1        CONSTR6   600
    X1        CONSTR7   397
    X1        CONSTR8   730
    X1        CONSTR9   70
    X1        CONSTR10  422
    X2        OBJ       603
    X2        CONSTR1   168
    X2        CONSTR2   243
    X2        CONSTR3   920
    X2        CONSTR4   526
    X2        CONSTR5   129
    X2        CONSTR6   640
    X2        CONSTR7   255
    X2        CONSTR8   524
    X2        CONSTR9   403
    X2        CONSTR10  122
    X3        OBJ       844
    X3        CONSTR1   84
    X3        CONSTR2   538
    X3        CONSTR3   930
    X3        CONSTR4   548
    X3        CONSTR5   701
    X3        CONSTR6   527
    X3        CONSTR7   520
    X3        CONSTR8   100
    X3        CONSTR9   427
    X3        CONSTR10  553
    X4        OBJ       645
    X4        CONSTR1   83
    X4        CONSTR2   838
    X4        CONSTR3   1
    X4        CONSTR4   928
    X4        CONSTR5   629
    X4        CONSTR6   209
    X4        CONSTR7   472
    X4        CONSTR8   719
    X4        CONSTR9   494
    X4        CONSTR10  549
    X5        OBJ       655
    X5        CONSTR1   924
    X5        CONSTR2   291
    X5        CONSTR3   349
    X5        CONSTR4   851
    X5        CONSTR5   381
    X5        CONSTR6   531
    X5        CONSTR7   777
    X5        CONSTR8   579
    X5        CONSTR9   949
    X5        CONSTR10  607
    X6        OBJ       953
    X6        CONSTR1   243
    X6        CONSTR2   602
    X6        CONSTR3   525
    X6        CONSTR4   14
    X6        CONSTR5   105
    X6        CONSTR6   905
    X6        CONSTR7   521
    X6        CONSTR8   715
    X6        CONSTR9   467
    X6        CONSTR10  610
    X7        OBJ       722
    X7        CONSTR1   866
    X7        CONSTR2   168
    X7        CONSTR3   716
    X7        CONSTR4   951
    X7        CONSTR5   99
    X7        CONSTR6   858
    X7        CONSTR7   431
    X7        CONSTR8   208
    X7        CONSTR9   831
    X7        CONSTR10  915
    X8        OBJ       851
    X8        CONSTR1   628
    X8        CONSTR2   129
    X8        CONSTR3   389
    X8        CONSTR4   486
    X8        CONSTR5   923
    X8        CONSTR6   118
    X8        CONSTR7   347
    X8        CONSTR8   223
    X8        CONSTR9   120
    X8        CONSTR10  248
    X9        OBJ       1083
    X9        CONSTR1   389
    X9        CONSTR2   527
    X9        CONSTR3   659
    X9        CONSTR4   671
    X9        CONSTR5   312
    X9        CONSTR6   81
    X9        CONSTR7   909
    X9        CONSTR8   580
    X9        CONSTR9   861
    X9        CONSTR10  897
    X10       OBJ       736
    X10       CONSTR1   839
    X10       CONSTR2   270
    X10       CONSTR3   948
    X10       CONSTR4   898
    X10       CONSTR5   529
    X10       CONSTR6   571
    X10       CONSTR7   471
    X10       CONSTR8   760
    X10       CONSTR9   188
    X10       CONSTR10  708
    X11       OBJ       596
    X11       CONSTR1   161
    X11       CONSTR2   274
    X11       CONSTR3   203
    X11       CONSTR4   51
    X11       CONSTR5   963
    X11       CONSTR6   380
    X11       CONSTR7   578
    X11       CONSTR8   357
    X11       CONSTR9   162
    X11       CONSTR10  485
    X12       OBJ       947
    X12       CONSTR1   493
    X12       CONSTR2   924
    X12       CONSTR3   631
    X12       CONSTR4   764
    X12       CONSTR5   580
    X12       CONSTR6   685
    X12       CONSTR7   565
    X12       CONSTR8   384
    X12       CONSTR9   932
    X12       CONSTR10  754
    X13       OBJ       570
    X13       CONSTR1   320
    X13       CONSTR2   325
    X13       CONSTR3   702
    X13       CONSTR4   565
    X13       CONSTR5   397
    X13       CONSTR6   772
    X13       CONSTR7   556
    X13       CONSTR8   151
    X13       CONSTR9   373
    X13       CONSTR10  958
    X14       OBJ       814
    X14       CONSTR1   304
    X14       CONSTR2   449
    X14       CONSTR3   666
    X14       CONSTR4   199
    X14       CONSTR5   538
    X14       CONSTR6   711
    X14       CONSTR7   48
    X14       CONSTR8   760
    X14       CONSTR9   630
    X14       CONSTR10  328
    X15       OBJ       766
    X15       CONSTR1   126
    X15       CONSTR2   887
    X15       CONSTR3   759
    X15       CONSTR4   803
    X15       CONSTR5   836
    X15       CONSTR6   689
    X15       CONSTR7   499
    X15       CONSTR8   700
    X15       CONSTR9   726
    X15       CONSTR10  788
    X16       OBJ       930
    X16       CONSTR1   918
    X16       CONSTR2   987
    X16       CONSTR3   103
    X16       CONSTR4   352
    X16       CONSTR5   502
    X16       CONSTR6   169
    X16       CONSTR7   548
    X16       CONSTR8   12
    X16       CONSTR9   848
    X16       CONSTR10  959
    X17       OBJ       1097
    X17       CONSTR1   664
    X17       CONSTR2   929
    X17       CONSTR3   954
    X17       CONSTR4   627
    X17       CONSTR5   954
    X17       CONSTR6   876
    X17       CONSTR7   957
    X17       CONSTR8   560
    X17       CONSTR9   644
    X17       CONSTR10  755
    X18       OBJ       947
    X18       CONSTR1   135
    X18       CONSTR2   376
    X18       CONSTR3   995
    X18       CONSTR4   766
    X18       CONSTR5   643
    X18       CONSTR6   394
    X18       CONSTR7   773
    X18       CONSTR8   377
    X18       CONSTR9   329
    X18       CONSTR10  345
    X19       OBJ       665
    X19       CONSTR1   317
    X19       CONSTR2   327
    X19       CONSTR3   299
    X19       CONSTR4   877
    X19       CONSTR5   342
    X19       CONSTR6   730
    X19       CONSTR7   785
    X19       CONSTR8   869
    X19       CONSTR9   925
    X19       CONSTR10  180
    X20       OBJ       1020
    X20       CONSTR1   447
    X20       CONSTR2   202
    X20       CONSTR3   908
    X20       CONSTR4   621
    X20       CONSTR5   658
    X20       CONSTR6   877
    X20       CONSTR7   840
    X20       CONSTR8   319
    X20       CONSTR9   578
    X20       CONSTR10  311
    X21       OBJ       856
    X21       CONSTR1   265
    X21       CONSTR2   678
    X21       CONSTR3   132
    X21       CONSTR4   309
    X21       CONSTR5   926
    X21       CONSTR6   63
    X21       CONSTR7   441
    X21       CONSTR8   875
    X21       CONSTR9   884
    X21       CONSTR10  711
    X22       OBJ       755
    X22       CONSTR1   781
    X22       CONSTR2   557
    X22       CONSTR3   150
    X22       CONSTR4   411
    X22       CONSTR5   416
    X22       CONSTR6   381
    X22       CONSTR7   93
    X22       CONSTR8   857
    X22       CONSTR9   60
    X22       CONSTR10  606
    X23       OBJ       542
    X23       CONSTR1   891
    X23       CONSTR2   945
    X23       CONSTR3   385
    X23       CONSTR4   215
    X23       CONSTR5   176
    X23       CONSTR6   322
    X23       CONSTR7   474
    X23       CONSTR8   48
    X23       CONSTR9   283
    X23       CONSTR10  229
    X24       OBJ       906
    X24       CONSTR1   381
    X24       CONSTR2   696
    X24       CONSTR3   530
    X24       CONSTR4   864
    X24       CONSTR5   226
    X24       CONSTR6   439
    X24       CONSTR7   506
    X24       CONSTR8   927
    X24       CONSTR9   868
    X24       CONSTR10  649
    X25       OBJ       711
    X25       CONSTR1   778
    X25       CONSTR2   495
    X25       CONSTR3   230
    X25       CONSTR4   312
    X25       CONSTR5   92
    X25       CONSTR6   993
    X25       CONSTR7   780
    X25       CONSTR8   329
    X25       CONSTR9   691
    X25       CONSTR10  651
    X26       OBJ       441
    X26       CONSTR1   997
    X26       CONSTR2   140
    X26       CONSTR3   23
    X26       CONSTR4   816
    X26       CONSTR5   598
    X26       CONSTR6   474
    X26       CONSTR7   746
    X26       CONSTR8   263
    X26       CONSTR9   55
    X26       CONSTR10  195
    X27       OBJ       484
    X27       CONSTR1   655
    X27       CONSTR2   735
    X27       CONSTR3   334
    X27       CONSTR4   303
    X27       CONSTR5   789
    X27       CONSTR6   597
    X27       CONSTR7   203
    X27       CONSTR8   118
    X27       CONSTR9   748
    X27       CONSTR10  60
    X28       OBJ       389
    X28       CONSTR1   139
    X28       CONSTR2   6
    X28       CONSTR3   132
    X28       CONSTR4   115
    X28       CONSTR5   113
    X28       CONSTR6   870
    X28       CONSTR7   309
    X28       CONSTR8   81
    X28       CONSTR9   625
    X28       CONSTR10  682
    X29       OBJ       670
    X29       CONSTR1   222
    X29       CONSTR2   717
    X29       CONSTR3   99
    X29       CONSTR4   740
    X29       CONSTR5   344
    X29       CONSTR6   22
    X29       CONSTR7   931
    X29       CONSTR8   991
    X29       CONSTR9   368
    X29       CONSTR10  598
    X30       OBJ       909
    X30       CONSTR1   199
    X30       CONSTR2   727
    X30       CONSTR3   244
    X30       CONSTR4   145
    X30       CONSTR5   767
    X30       CONSTR6   762
    X30       CONSTR7   72
    X30       CONSTR8   710
    X30       CONSTR9   394
    X30       CONSTR10  862
    X31       OBJ       954
    X31       CONSTR1   799
    X31       CONSTR2   138
    X31       CONSTR3   534
    X31       CONSTR4   620
    X31       CONSTR5   254
    X31       CONSTR6   552
    X31       CONSTR7   173
    X31       CONSTR8   891
    X31       CONSTR9   477
    X31       CONSTR10  186
    X32       OBJ       581
    X32       CONSTR1   952
    X32       CONSTR2   246
    X32       CONSTR3   585
    X32       CONSTR4   607
    X32       CONSTR5   237
    X32       CONSTR6   237
    X32       CONSTR7   831
    X32       CONSTR8   496
    X32       CONSTR9   316
    X32       CONSTR10  307
    X33       OBJ       929
    X33       CONSTR1   841
    X33       CONSTR2   270
    X33       CONSTR3   241
    X33       CONSTR4   613
    X33       CONSTR5   411
    X33       CONSTR6   450
    X33       CONSTR7   730
    X33       CONSTR8   224
    X33       CONSTR9   280
    X33       CONSTR10  637
    X34       OBJ       836
    X34       CONSTR1   99
    X34       CONSTR2   970
    X34       CONSTR3   911
    X34       CONSTR4   470
    X34       CONSTR5   610
    X34       CONSTR6   89
    X34       CONSTR7   131
    X34       CONSTR8   933
    X34       CONSTR9   417
    X34       CONSTR10  523
    X35       OBJ       912
    X35       CONSTR1   716
    X35       CONSTR2   93
    X35       CONSTR3   822
    X35       CONSTR4   566
    X35       CONSTR5   902
    X35       CONSTR6   201
    X35       CONSTR7   840
    X35       CONSTR8   623
    X35       CONSTR9   203
    X35       CONSTR10  463
    X36       OBJ       732
    X36       CONSTR1   733
    X36       CONSTR2   339
    X36       CONSTR3   640
    X36       CONSTR4   791
    X36       CONSTR5   734
    X36       CONSTR6   821
    X36       CONSTR7   326
    X36       CONSTR8   268
    X36       CONSTR9   149
    X36       CONSTR10  717
    X37       OBJ       594
    X37       CONSTR1   498
    X37       CONSTR2   201
    X37       CONSTR3   841
    X37       CONSTR4   752
    X37       CONSTR5   566
    X37       CONSTR6   565
    X37       CONSTR7   419
    X37       CONSTR8   536
    X37       CONSTR9   710
    X37       CONSTR10  244
    X38       OBJ       703
    X38       CONSTR1   747
    X38       CONSTR2   414
    X38       CONSTR3   165
    X38       CONSTR4   627
    X38       CONSTR5   464
    X38       CONSTR6   278
    X38       CONSTR7   110
    X38       CONSTR8   336
    X38       CONSTR9   438
    X38       CONSTR10  711
    X39       OBJ       862
    X39       CONSTR1   396
    X39       CONSTR2   819
    X39       CONSTR3   75
    X39       CONSTR4   710
    X39       CONSTR5   216
    X39       CONSTR6   589
    X39       CONSTR7   492
    X39       CONSTR8   257
    X39       CONSTR9   781
    X39       CONSTR10  29
    X40       OBJ       643
    X40       CONSTR1   906
    X40       CONSTR2   677
    X40       CONSTR3   771
    X40       CONSTR4   497
    X40       CONSTR5   884
    X40       CONSTR6   692
    X40       CONSTR7   3
    X40       CONSTR8   531
    X40       CONSTR9   690
    X40       CONSTR10  38
    X41       OBJ       633
    X41       CONSTR1   997
    X41       CONSTR2   756
    X41       CONSTR3   464
    X41       CONSTR4   718
    X41       CONSTR5   456
    X41       CONSTR6   304
    X41       CONSTR7   749
    X41       CONSTR8   800
    X41       CONSTR9   524
    X41       CONSTR10  527
    X42       OBJ       458
    X42       CONSTR1   111
    X42       CONSTR2   454
    X42       CONSTR3   851
    X42       CONSTR4   134
    X42       CONSTR5   47
    X42       CONSTR6   308
    X42       CONSTR7   715
    X42       CONSTR8   236
    X42       CONSTR9   469
    X42       CONSTR10  52
    X43       OBJ       952
    X43       CONSTR1   147
    X43       CONSTR2   127
    X43       CONSTR3   774
    X43       CONSTR4   732
    X43       CONSTR5   81
    X43       CONSTR6   339
    X43       CONSTR7   404
    X43       CONSTR8   755
    X43       CONSTR9   978
    X43       CONSTR10  764
    X44       OBJ       1042
    X44       CONSTR1   157
    X44       CONSTR2   81
    X44       CONSTR3   733
    X44       CONSTR4   675
    X44       CONSTR5   842
    X44       CONSTR6   504
    X44       CONSTR7   928
    X44       CONSTR8   979
    X44       CONSTR9   751
    X44       CONSTR10  713
    X45       OBJ       718
    X45       CONSTR1   541
    X45       CONSTR2   33
    X45       CONSTR3   731
    X45       CONSTR4   202
    X45       CONSTR5   992
    X45       CONSTR6   72
    X45       CONSTR7   274
    X45       CONSTR8   951
    X45       CONSTR9   932
    X45       CONSTR10  64
    X46       OBJ       547
    X46       CONSTR1   951
    X46       CONSTR2   187
    X46       CONSTR3   356
    X46       CONSTR4   501
    X46       CONSTR5   390
    X46       CONSTR6   282
    X46       CONSTR7   38
    X46       CONSTR8   333
    X46       CONSTR9   845
    X46       CONSTR10  273
    X47       OBJ       668
    X47       CONSTR1   561
    X47       CONSTR2   311
    X47       CONSTR3   524
    X47       CONSTR4   68
    X47       CONSTR5   453
    X47       CONSTR6   116
    X47       CONSTR7   457
    X47       CONSTR8   611
    X47       CONSTR9   442
    X47       CONSTR10  648
    X48       OBJ       780
    X48       CONSTR1   914
    X48       CONSTR2   626
    X48       CONSTR3   978
    X48       CONSTR4   71
    X48       CONSTR5   956
    X48       CONSTR6   946
    X48       CONSTR7   136
    X48       CONSTR8   923
    X48       CONSTR9   294
    X48       CONSTR10  223
    X49       OBJ       736
    X49       CONSTR1   252
    X49       CONSTR2   421
    X49       CONSTR3   445
    X49       CONSTR4   978
    X49       CONSTR5   33
    X49       CONSTR6   725
    X49       CONSTR7   214
    X49       CONSTR8   967
    X49       CONSTR9   509
    X49       CONSTR10  950
    X50       OBJ       648
    X50       CONSTR1   475
    X50       CONSTR2   632
    X50       CONSTR3   106
    X50       CONSTR4   542
    X50       CONSTR5   700
    X50       CONSTR6   210
    X50       CONSTR7   743
    X50       CONSTR8   624
    X50       CONSTR9   36
    X50       CONSTR10  390
    X51       OBJ       561
    X51       CONSTR1   418
    X51       CONSTR2   96
    X51       CONSTR3   23
    X51       CONSTR4   848
    X51       CONSTR5   442
    X51       CONSTR6   223
    X51       CONSTR7   735
    X51       CONSTR8   391
    X51       CONSTR9   527
    X51       CONSTR10  925
    X52       OBJ       704
    X52       CONSTR1   337
    X52       CONSTR2   170
    X52       CONSTR3   811
    X52       CONSTR4   294
    X52       CONSTR5   473
    X52       CONSTR6   74
    X52       CONSTR7   403
    X52       CONSTR8   405
    X52       CONSTR9   244
    X52       CONSTR10  583
    X53       OBJ       815
    X53       CONSTR1   755
    X53       CONSTR2   359
    X53       CONSTR3   752
    X53       CONSTR4   696
    X53       CONSTR5   129
    X53       CONSTR6   609
    X53       CONSTR7   745
    X53       CONSTR8   371
    X53       CONSTR9   6
    X53       CONSTR10  602
    X54       OBJ       791
    X54       CONSTR1   787
    X54       CONSTR2   492
    X54       CONSTR3   266
    X54       CONSTR4   803
    X54       CONSTR5   745
    X54       CONSTR6   236
    X54       CONSTR7   603
    X54       CONSTR8   799
    X54       CONSTR9   992
    X54       CONSTR10  787
    X55       OBJ       559
    X55       CONSTR1   520
    X55       CONSTR2   224
    X55       CONSTR3   806
    X55       CONSTR4   844
    X55       CONSTR5   886
    X55       CONSTR6   271
    X55       CONSTR7   106
    X55       CONSTR8   262
    X55       CONSTR9   575
    X55       CONSTR10  318
    X56       OBJ       882
    X56       CONSTR1   451
    X56       CONSTR2   79
    X56       CONSTR3   655
    X56       CONSTR4   374
    X56       CONSTR5   64
    X56       CONSTR6   246
    X56       CONSTR7   102
    X56       CONSTR8   331
    X56       CONSTR9   881
    X56       CONSTR10  886
    X57       OBJ       561
    X57       CONSTR1   728
    X57       CONSTR2   488
    X57       CONSTR3   964
    X57       CONSTR4   221
    X57       CONSTR5   200
    X57       CONSTR6   297
    X57       CONSTR7   523
    X57       CONSTR8   882
    X57       CONSTR9   323
    X57       CONSTR10  593
    X58       OBJ       869
    X58       CONSTR1   229
    X58       CONSTR2   547
    X58       CONSTR3   590
    X58       CONSTR4   347
    X58       CONSTR5   586
    X58       CONSTR6   784
    X58       CONSTR7   386
    X58       CONSTR8   504
    X58       CONSTR9   636
    X58       CONSTR10  38
    X59       OBJ       862
    X59       CONSTR1   601
    X59       CONSTR2   102
    X59       CONSTR3   900
    X59       CONSTR4   309
    X59       CONSTR5   249
    X59       CONSTR6   507
    X59       CONSTR7   687
    X59       CONSTR8   630
    X59       CONSTR9   72
    X59       CONSTR10  960
    X60       OBJ       751
    X60       CONSTR1   26
    X60       CONSTR2   926
    X60       CONSTR3   720
    X60       CONSTR4   435
    X60       CONSTR5   716
    X60       CONSTR6   194
    X60       CONSTR7   284
    X60       CONSTR8   468
    X60       CONSTR9   102
    X60       CONSTR10  423
    X61       OBJ       534
    X61       CONSTR1   514
    X61       CONSTR2   278
    X61       CONSTR3   122
    X61       CONSTR4   658
    X61       CONSTR5   648
    X61       CONSTR6   141
    X61       CONSTR7   242
    X61       CONSTR8   644
    X61       CONSTR9   803
    X61       CONSTR10  776
    X62       OBJ       844
    X62       CONSTR1   922
    X62       CONSTR2   924
    X62       CONSTR3   272
    X62       CONSTR4   666
    X62       CONSTR5   485
    X62       CONSTR6   485
    X62       CONSTR7   119
    X62       CONSTR8   636
    X62       CONSTR9   457
    X62       CONSTR10  798
    X63       OBJ       759
    X63       CONSTR1   312
    X63       CONSTR2   369
    X63       CONSTR3   316
    X63       CONSTR4   119
    X63       CONSTR5   850
    X63       CONSTR6   280
    X63       CONSTR7   441
    X63       CONSTR8   377
    X63       CONSTR9   618
    X63       CONSTR10  297
    X64       OBJ       682
    X64       CONSTR1   195
    X64       CONSTR2   327
    X64       CONSTR3   178
    X64       CONSTR4   590
    X64       CONSTR5   152
    X64       CONSTR6   342
    X64       CONSTR7   335
    X64       CONSTR8   861
    X64       CONSTR9   588
    X64       CONSTR10  41
    X65       OBJ       752
    X65       CONSTR1   222
    X65       CONSTR2   944
    X65       CONSTR3   496
    X65       CONSTR4   510
    X65       CONSTR5   937
    X65       CONSTR6   440
    X65       CONSTR7   821
    X65       CONSTR8   511
    X65       CONSTR9   453
    X65       CONSTR10  131
    X66       OBJ       467
    X66       CONSTR1   142
    X66       CONSTR2   864
    X66       CONSTR3   820
    X66       CONSTR4   44
    X66       CONSTR5   25
    X66       CONSTR6   509
    X66       CONSTR7   498
    X66       CONSTR8   712
    X66       CONSTR9   360
    X66       CONSTR10  547
    X67       OBJ       895
    X67       CONSTR1   588
    X67       CONSTR2   299
    X67       CONSTR3   208
    X67       CONSTR4   352
    X67       CONSTR5   867
    X67       CONSTR6   465
    X67       CONSTR7   202
    X67       CONSTR8   487
    X67       CONSTR9   603
    X67       CONSTR10  992
    X68       OBJ       947
    X68       CONSTR1   452
    X68       CONSTR2   110
    X68       CONSTR3   852
    X68       CONSTR4   273
    X68       CONSTR5   561
    X68       CONSTR6   602
    X68       CONSTR7   724
    X68       CONSTR8   688
    X68       CONSTR9   881
    X68       CONSTR10  27
    X69       OBJ       1020
    X69       CONSTR1   487
    X69       CONSTR2   226
    X69       CONSTR3   747
    X69       CONSTR4   766
    X69       CONSTR5   818
    X69       CONSTR6   790
    X69       CONSTR7   278
    X69       CONSTR8   593
    X69       CONSTR9   246
    X69       CONSTR10  491
    X70       OBJ       838
    X70       CONSTR1   947
    X70       CONSTR2   256
    X70       CONSTR3   579
    X70       CONSTR4   259
    X70       CONSTR5   898
    X70       CONSTR6   941
    X70       CONSTR7   708
    X70       CONSTR8   973
    X70       CONSTR9   480
    X70       CONSTR10  345
    X71       OBJ       762
    X71       CONSTR1   610
    X71       CONSTR2   956
    X71       CONSTR3   259
    X71       CONSTR4   919
    X71       CONSTR5   348
    X71       CONSTR6   90
    X71       CONSTR7   726
    X71       CONSTR8   970
    X71       CONSTR9   166
    X71       CONSTR10  339
    X72       OBJ       722
    X72       CONSTR1   870
    X72       CONSTR2   229
    X72       CONSTR3   444
    X72       CONSTR4   902
    X72       CONSTR5   678
    X72       CONSTR6   994
    X72       CONSTR7   530
    X72       CONSTR8   566
    X72       CONSTR9   849
    X72       CONSTR10  560
    X73       OBJ       1031
    X73       CONSTR1   503
    X73       CONSTR2   214
    X73       CONSTR3   717
    X73       CONSTR4   872
    X73       CONSTR5   254
    X73       CONSTR6   816
    X73       CONSTR7   554
    X73       CONSTR8   706
    X73       CONSTR9   940
    X73       CONSTR10  603
    X74       OBJ       583
    X74       CONSTR1   654
    X74       CONSTR2   531
    X74       CONSTR3   150
    X74       CONSTR4   294
    X74       CONSTR5   15
    X74       CONSTR6   366
    X74       CONSTR7   655
    X74       CONSTR8   208
    X74       CONSTR9   828
    X74       CONSTR10  337
    X75       OBJ       949
    X75       CONSTR1   219
    X75       CONSTR2   317
    X75       CONSTR3   325
    X75       CONSTR4   772
    X75       CONSTR5   1
    X75       CONSTR6   759
    X75       CONSTR7   774
    X75       CONSTR8   859
    X75       CONSTR9   224
    X75       CONSTR10  827
    X76       OBJ       638
    X76       CONSTR1   889
    X76       CONSTR2   682
    X76       CONSTR3   300
    X76       CONSTR4   170
    X76       CONSTR5   488
    X76       CONSTR6   282
    X76       CONSTR7   760
    X76       CONSTR8   627
    X76       CONSTR9   781
    X76       CONSTR10  795
    X77       OBJ       732
    X77       CONSTR1   456
    X77       CONSTR2   22
    X77       CONSTR3   788
    X77       CONSTR4   454
    X77       CONSTR5   828
    X77       CONSTR6   232
    X77       CONSTR7   239
    X77       CONSTR8   377
    X77       CONSTR9   376
    X77       CONSTR10  993
    X78       OBJ       839
    X78       CONSTR1   588
    X78       CONSTR2   593
    X78       CONSTR3   257
    X78       CONSTR4   238
    X78       CONSTR5   156
    X78       CONSTR6   356
    X78       CONSTR7   923
    X78       CONSTR8   657
    X78       CONSTR9   322
    X78       CONSTR10  118
    X79       OBJ       485
    X79       CONSTR1   533
    X79       CONSTR2   315
    X79       CONSTR3   448
    X79       CONSTR4   7
    X79       CONSTR5   506
    X79       CONSTR6   735
    X79       CONSTR7   314
    X79       CONSTR8   24
    X79       CONSTR9   927
    X79       CONSTR10  800
    X80       OBJ       1088
    X80       CONSTR1   594
    X80       CONSTR2   740
    X80       CONSTR3   439
    X80       CONSTR4   461
    X80       CONSTR5   705
    X80       CONSTR6   640
    X80       CONSTR7   562
    X80       CONSTR8   926
    X80       CONSTR9   294
    X80       CONSTR10  865
    X81       OBJ       749
    X81       CONSTR1   216
    X81       CONSTR2   740
    X81       CONSTR3   774
    X81       CONSTR4   171
    X81       CONSTR5   365
    X81       CONSTR6   725
    X81       CONSTR7   2
    X81       CONSTR8   579
    X81       CONSTR9   885
    X81       CONSTR10  525
    X82       OBJ       795
    X82       CONSTR1   116
    X82       CONSTR2   899
    X82       CONSTR3   763
    X82       CONSTR4   567
    X82       CONSTR5   430
    X82       CONSTR6   833
    X82       CONSTR7   192
    X82       CONSTR8   660
    X82       CONSTR9   812
    X82       CONSTR10  199
    X83       OBJ       611
    X83       CONSTR1   771
    X83       CONSTR2   280
    X83       CONSTR3   828
    X83       CONSTR4   920
    X83       CONSTR5   222
    X83       CONSTR6   264
    X83       CONSTR7   563
    X83       CONSTR8   890
    X83       CONSTR9   491
    X83       CONSTR10  588
    X84       OBJ       796
    X84       CONSTR1   341
    X84       CONSTR2   276
    X84       CONSTR3   146
    X84       CONSTR4   686
    X84       CONSTR5   54
    X84       CONSTR6   909
    X84       CONSTR7   338
    X84       CONSTR8   869
    X84       CONSTR9   113
    X84       CONSTR10  448
    X85       OBJ       813
    X85       CONSTR1   288
    X85       CONSTR2   597
    X85       CONSTR3   157
    X85       CONSTR4   991
    X85       CONSTR5   35
    X85       CONSTR6   318
    X85       CONSTR7   686
    X85       CONSTR8   867
    X85       CONSTR9   163
    X85       CONSTR10  987
    X86       OBJ       813
    X86       CONSTR1   580
    X86       CONSTR2   679
    X86       CONSTR3   639
    X86       CONSTR4   627
    X86       CONSTR5   466
    X86       CONSTR6   961
    X86       CONSTR7   639
    X86       CONSTR8   106
    X86       CONSTR9   382
    X86       CONSTR10  522
    X87       OBJ       729
    X87       CONSTR1   508
    X87       CONSTR2   297
    X87       CONSTR3   679
    X87       CONSTR4   481
    X87       CONSTR5   246
    X87       CONSTR6   777
    X87       CONSTR7   75
    X87       CONSTR8   752
    X87       CONSTR9   282
    X87       CONSTR10  24
    X88       OBJ       591
    X88       CONSTR1   994
    X88       CONSTR2   750
    X88       CONSTR3   170
    X88       CONSTR4   897
    X88       CONSTR5   356
    X88       CONSTR6   337
    X88       CONSTR7   613
    X88       CONSTR8   394
    X88       CONSTR9   88
    X88       CONSTR10  67
    X89       OBJ       582
    X89       CONSTR1   452
    X89       CONSTR2   89
    X89       CONSTR3   759
    X89       CONSTR4   498
    X89       CONSTR5   134
    X89       CONSTR6   86
    X89       CONSTR7   483
    X89       CONSTR8   5
    X89       CONSTR9   562
    X89       CONSTR10  376
    X90       OBJ       671
    X90       CONSTR1   240
    X90       CONSTR2   964
    X90       CONSTR3   404
    X90       CONSTR4   366
    X90       CONSTR5   124
    X90       CONSTR6   100
    X90       CONSTR7   280
    X90       CONSTR8   412
    X90       CONSTR9   908
    X90       CONSTR10  619
    X91       OBJ       877
    X91       CONSTR1   428
    X91       CONSTR2   265
    X91       CONSTR3   642
    X91       CONSTR4   989
    X91       CONSTR5   787
    X91       CONSTR6   106
    X91       CONSTR7   429
    X91       CONSTR8   205
    X91       CONSTR9   734
    X91       CONSTR10  488
    X92       OBJ       500
    X92       CONSTR1   993
    X92       CONSTR2   228
    X92       CONSTR3   737
    X92       CONSTR4   880
    X92       CONSTR5   220
    X92       CONSTR6   56
    X92       CONSTR7   4
    X92       CONSTR8   431
    X92       CONSTR9   731
    X92       CONSTR10  123
    X93       OBJ       808
    X93       CONSTR1   656
    X93       CONSTR2   852
    X93       CONSTR3   594
    X93       CONSTR4   98
    X93       CONSTR5   166
    X93       CONSTR6   421
    X93       CONSTR7   540
    X93       CONSTR8   441
    X93       CONSTR9   526
    X93       CONSTR10  566
    X94       OBJ       490
    X94       CONSTR1   150
    X94       CONSTR2   81
    X94       CONSTR3   861
    X94       CONSTR4   313
    X94       CONSTR5   665
    X94       CONSTR6   477
    X94       CONSTR7   481
    X94       CONSTR8   444
    X94       CONSTR9   673
    X94       CONSTR10  415
    X95       OBJ       786
    X95       CONSTR1   349
    X95       CONSTR2   712
    X95       CONSTR3   252
    X95       CONSTR4   55
    X95       CONSTR5   639
    X95       CONSTR6   20
    X95       CONSTR7   180
    X95       CONSTR8   762
    X95       CONSTR9   205
    X95       CONSTR10  960
    X96       OBJ       532
    X96       CONSTR1   61
    X96       CONSTR2   655
    X96       CONSTR3   816
    X96       CONSTR4   258
    X96       CONSTR5   478
    X96       CONSTR6   985
    X96       CONSTR7   352
    X96       CONSTR8   451
    X96       CONSTR9   91
    X96       CONSTR10  237
    X97       OBJ       607
    X97       CONSTR1   759
    X97       CONSTR2   26
    X97       CONSTR3   161
    X97       CONSTR4   692
    X97       CONSTR5   136
    X97       CONSTR6   784
    X97       CONSTR7   695
    X97       CONSTR8   183
    X97       CONSTR9   511
    X97       CONSTR10  680
    X98       OBJ       530
    X98       CONSTR1   451
    X98       CONSTR2   598
    X98       CONSTR3   23
    X98       CONSTR4   743
    X98       CONSTR5   11
    X98       CONSTR6   637
    X98       CONSTR7   603
    X98       CONSTR8   572
    X98       CONSTR9   127
    X98       CONSTR10  459
    X99       OBJ       732
    X99       CONSTR1   347
    X99       CONSTR2   595
    X99       CONSTR3   695
    X99       CONSTR4   827
    X99       CONSTR5   204
    X99       CONSTR6   760
    X99       CONSTR7   325
    X99       CONSTR8   299
    X99       CONSTR9   731
    X99       CONSTR10  115
    X100      OBJ       971
    X100      CONSTR1   938
    X100      CONSTR2   861
    X100      CONSTR3   700
    X100      CONSTR4   590
    X100      CONSTR5   118
    X100      CONSTR6   80
    X100      CONSTR7   586
    X100      CONSTR8   394
    X100      CONSTR9   243
    X100      CONSTR10  358
    INT0001   'MARKER'  'INTEND'
RHS
    RHS10001  CONSTR1   38056
    RHS10001  CONSTR2   34565
    RHS10001  CONSTR3   38861
    RHS10001  CONSTR4   39706
    RHS10001  CONSTR5   34214
    RHS10001  CONSTR6   35901
    RHS10001  CONSTR7   35672
    RHS10001  CONSTR8   40696
    RHS10001  CONSTR9   38240
    RHS10001  CONSTR10  38062
BOUNDS
 BV BND       X1        .00
 BV BND       X2        .00
 BV BND       X3        .00
 BV BND       X4        .00
 BV BND       X5        .00
 BV BND       X6        .00
 BV BND       X7        .00
 BV BND       X8        .00
 BV BND       X9        .00
 BV BND       X10       .00
 BV BND       X11       .00
 BV BND       X12       .00
 BV BND       X13       .00
 BV BND       X14       .00
 BV BND       X15       .00
 BV BND       X16       .00
 BV BND       X17       .00
 BV BND       X18       .00
 BV BND       X19       .00
 BV BND       X20       .00
 BV BND       X21       .00
 BV BND       X22       .00
 BV BND       X23       .00
 BV BND       X24       .00
 BV BND       X25       .00
 BV BND       X26       .00
 BV BND       X27       .00
 BV BND       X28       .00
 BV BND       X29       .00
 BV BND       X30       .00
 BV BND       X31       .00
 BV BND       X32       .00
 BV BND       X33       .00
 BV BND       X34       .00
 BV BND       X35       .00
 BV BND       X36       .00
 BV BND       X37       .00
 BV BND       X38       .00
 BV BND       X39       .00
 BV BND       X40       .00
 BV BND       X41       .00
 BV BND       X42       .00
 BV BND       X43       .00
 BV BND       X44       .00
 BV BND       X45       .00
 BV BND       X46       .00
 BV BND       X47       .00
 BV BND       X48       .00
 BV BND       X49       .00
 BV BND       X50       .00
 BV BND       X51       .00
 BV BND       X52       .00
 BV BND       X53       .00
 BV BND       X54       .00
 BV BND       X55       .00
 BV BND       X56       .00
 BV BND       X57       .00
 BV BND       X58       .00
 BV BND       X59       .00
 BV BND       X60       .00
 BV BND       X61       .00
 BV BND       X62       .00
 BV BND       X63       .00
 BV BND       X64       .00
 BV BND       X65       .00
 BV BND       X66       .00
 BV BND       X67       .00
 BV BND       X68       .00
 BV BND       X69       .00
 BV BND       X70       .00
 BV BND       X71       .00
 BV BND       X72       .00
 BV BND       X73       .00
 BV BND       X74       .00
 BV BND       X75       .00
 BV BND       X76       .00
 BV BND       X77       .00
 BV BND       X78       .00
 BV BND       X79       .00
 BV BND       X80       .00
 BV BND       X81       .00
 BV BND       X82       .00
 BV BND       X83       .00
 BV BND       X84       .00
 BV BND       X85       .00
 BV BND       X86       .00
 BV BND       X87       .00
 BV BND       X88       .00
 BV BND       X89       .00
 BV BND       X90       .00
 BV BND       X91       .00
 BV BND       X92       .00
 BV BND       X93       .00
 BV BND       X94       .00
 BV BND       X95       .00
 BV BND       X96       .00
 BV BND       X97       .00
 BV BND       X98       .00
 BV BND       X99       .00
 BV BND       X100      .00
ENDATA
